n_machines = 2;
n_resources = 3;
n_jobs = 60;
horizon = 31635;
LB = 15817;
n_jobs_per_resource = [20, 20, 20];
duration = [257, 951, 897, 287, 662, 92, 952, 137, 798, 978, 320, 171, 327, 516, 173, 195, 932, 284, 210, 754, 618, 454, 958, 712, 397, 519, 70, 445, 624, 575, 409, 735, 460, 856, 129, 100, 600, 706, 972, 115, 959, 181, 306, 859, 967, 218, 305, 975, 741, 759, 253, 52, 869, 549, 195, 977, 775, 22, 436, 890]